c Generated map
c Size: 8 * 8, weights in range: 1 to 10, walls: True, with ratio 0.1
c dim 1 of 10
c
p sp 64 92
c graph contains 64 nodes and 92 arcs
c
a 1 9 2
a 9 1 2
a 1 2 2
a 2 1 2
a 2 10 5
a 10 2 5
a 2 3 3
a 3 2 3
a 3 11 10
a 11 3 10
a 3 4 6
a 4 3 6
a 4 5 10
a 5 4 10
a 5 13 9
a 13 5 9
a 7 15 10
a 15 7 10
a 7 8 1
a 8 7 1
a 8 16 5
a 16 8 5
a 9 17 1
a 17 9 1
a 9 10 10
a 10 9 10
a 10 18 9
a 18 10 9
a 10 11 8
a 11 10 8
a 11 19 6
a 19 11 6
a 13 21 3
a 21 13 3
a 13 14 9
a 14 13 9
a 14 15 3
a 15 14 3
a 15 23 1
a 23 15 1
a 15 16 1
a 16 15 1
a 17 18 4
a 18 17 4
a 18 26 4
a 26 18 4
a 18 19 6
a 19 18 6
a 19 27 8
a 27 19 8
a 19 20 10
a 20 19 10
a 20 28 2
a 28 20 2
a 20 21 10
a 21 20 10
a 21 29 6
a 29 21 6
a 23 31 5
a 31 23 5
a 26 34 1
a 34 26 1
a 26 27 3
a 27 26 3
a 27 35 5
a 35 27 5
a 27 28 7
a 28 27 7
a 28 36 4
a 36 28 4
a 28 29 4
a 29 28 4
a 29 37 8
a 37 29 8
a 29 30 9
a 30 29 9
a 30 38 1
a 38 30 1
a 30 31 10
a 31 30 10
a 31 39 4
a 39 31 4
a 31 32 8
a 32 31 8
a 32 40 10
a 40 32 10
a 33 41 6
a 41 33 6
a 33 34 8
a 34 33 8
a 34 42 4
a 42 34 4
a 34 35 8
a 35 34 8
a 35 43 2
a 43 35 2
a 35 36 9
a 36 35 9
a 36 44 6
a 44 36 6
a 36 37 2
a 37 36 2
a 37 45 9
a 45 37 9
a 37 38 9
a 38 37 9
a 38 46 10
a 46 38 10
a 38 39 4
a 39 38 4
a 39 47 9
a 47 39 9
a 39 40 7
a 40 39 7
a 40 48 10
a 48 40 10
a 41 49 5
a 49 41 5
a 41 42 5
a 42 41 5
a 42 50 5
a 50 42 5
a 42 43 4
a 43 42 4
a 43 51 8
a 51 43 8
a 43 44 1
a 44 43 1
a 44 52 4
a 52 44 4
a 44 45 4
a 45 44 4
a 45 53 5
a 53 45 5
a 45 46 6
a 46 45 6
a 46 54 3
a 54 46 3
a 46 47 5
a 47 46 5
a 47 55 4
a 55 47 4
a 47 48 8
a 48 47 8
a 48 56 2
a 56 48 2
a 49 57 7
a 57 49 7
a 49 50 7
a 50 49 7
a 50 58 1
a 58 50 1
a 50 51 10
a 51 50 10
a 51 52 8
a 52 51 8
a 52 60 4
a 60 52 4
a 52 53 3
a 53 52 3
a 53 61 8
a 61 53 8
a 53 54 9
a 54 53 9
a 54 62 9
a 62 54 9
a 54 55 9
a 55 54 9
a 55 63 9
a 63 55 9
a 55 56 4
a 56 55 4
a 56 64 5
a 64 56 5
a 57 58 6
a 58 57 6
a 60 61 9
a 61 60 9
a 61 62 1
a 62 61 1
a 62 63 4
a 63 62 4
a 63 64 4
a 64 63 4
